702 5
10 10 10 10 10 

0 0 0 0 0 0 5 2 54 106 158 170 
0 0 0 0 0 0 1 3 
6 1 1 1 1 1 2 8 4 
1 1 1 1 2 1 1 5 
5 3 4 2 2 1 2 6 350 
2 4 2 1 4 1 1 7 
4 4 3 4 2 2 2 12 9 
1 4 5 7 7 2 2 12 9 
6 4 4 1 1 2 1 10 
3 2 3 1 4 2 1 11 
7 3 4 4 4 3 1 13 
8 5 2 2 3 3 1 13 
2 2 1 2 4 3 1 14 
6 3 1 1 4 4 1 15 
3 2 4 1 3 1 2 17 16 
7 2 3 2 1 2 2 22 18 
5 2 1 1 2 3 1 18 
4 1 5 3 2 3 1 19 
6 2 2 2 1 4 1 20 
1 2 2 1 3 1 3 27 26 21 
7 2 4 6 3 2 2 29 23 
8 3 2 5 2 3 2 29 23 
6 2 2 3 2 3 1 24 
4 2 2 3 2 1 1 25 
5 1 1 1 2 1 2 30 28 
1 1 2 1 2 2 2 36 28 
10 2 6 3 2 4 1 29 
8 1 2 2 4 2 1 31 
3 3 3 1 1 2 1 31 
1 2 4 3 2 1 2 36 33 
8 3 1 3 3 7 1 32 
3 2 1 3 5 2 1 33 
2 2 3 2 3 2 1 34 
2 1 2 4 5 1 2 37 35 
6 1 2 3 2 3 2 42 38 
9 3 4 4 2 7 2 39 37 
5 3 2 1 2 3 2 42 40 
9 4 2 4 1 3 1 39 
10 1 3 4 1 5 1 40 
6 1 4 3 2 1 1 41 
3 5 2 2 1 1 2 47 43 
2 3 2 2 3 2 2 47 43 
10 1 3 1 2 2 1 44 
3 3 2 3 1 2 1 45 
5 5 2 4 2 5 1 46 
1 2 2 3 3 3 1 48 
7 6 2 4 3 2 1 48 
9 3 2 2 2 4 1 49 
8 5 3 2 2 2 2 52 50 
10 2 1 1 4 3 1 51 
4 2 2 2 2 1 1 53 
2 1 2 3 2 4 1 53 
0 0 0 0 0 0 1 702 
0 0 0 0 0 0 1 55 
6 1 1 1 1 1 2 62 56 
2 2 2 1 2 2 1 57 
8 3 2 3 2 2 1 58 
9 4 2 3 1 3 1 59 
4 3 2 3 1 3 2 64 60 
7 1 1 3 1 4 1 61 
9 2 2 1 2 1 1 63 
9 5 2 5 2 2 1 63 
4 1 2 2 3 2 1 65 
10 2 1 2 2 4 1 65 
3 1 7 4 6 1 1 66 
3 4 3 2 2 3 2 69 67 
7 2 3 2 4 3 1 68 
9 2 4 2 1 3 2 77 70 
6 1 5 2 2 4 1 70 
4 4 2 2 1 2 1 71 
2 1 4 3 2 5 1 72 
3 3 4 3 3 3 3 79 78 73 
8 3 1 2 5 2 2 85 74 
8 4 1 2 2 1 1 75 
6 3 3 1 4 2 1 76 
8 2 1 2 3 2 2 83 80 
7 2 2 4 1 4 2 83 80 
4 3 3 3 3 2 1 80 
8 3 2 4 2 2 2 85 82 
6 3 1 3 1 1 1 81 
7 2 4 3 1 2 1 82 
2 4 3 2 3 5 1 84 
2 4 3 4 6 1 3 90 88 87 
1 3 4 3 1 3 2 88 86 
5 2 1 2 3 1 1 86 
8 3 2 3 2 1 2 87 627 
3 1 2 4 2 3 2 96 89 
9 2 1 2 5 3 2 96 92 
3 2 1 2 2 6 1 91 
4 2 1 3 4 2 1 91 
6 3 3 1 2 2 1 92 
3 2 1 3 2 2 1 93 
9 3 3 2 2 4 2 102 94 
4 2 4 3 3 3 1 95 
9 2 4 1 3 3 1 97 
7 1 2 4 3 2 1 97 
4 3 5 1 4 2 1 98 
7 5 2 1 3 1 1 99 
2 4 3 3 6 4 1 100 
1 2 2 3 4 3 2 103 101 
10 4 2 1 1 3 1 104 
8 2 2 4 1 2 1 103 
8 1 4 3 2 1 1 105 
4 1 3 2 1 2 1 105 
0 0 0 0 0 0 1 702 
0 0 0 0 0 0 1 107 
4 1 1 1 1 1 2 111 108 
7 2 1 4 4 3 1 109 
5 2 3 3 1 4 1 110 
1 1 2 2 2 3 1 112 
5 1 3 3 3 2 1 112 
4 2 3 3 1 1 2 116 113 
6 5 2 2 2 2 1 114 
6 1 4 3 1 3 1 115 
2 4 4 5 1 1 1 117 
1 1 2 3 2 1 1 117 
2 2 2 5 2 3 1 118 
5 1 2 2 2 2 1 119 
6 3 1 4 2 4 2 121 120 
1 2 4 2 2 3 2 125 122 
1 2 1 2 1 2 1 122 
3 1 1 2 2 3 1 123 
9 5 1 4 2 5 1 124 
4 5 3 3 1 2 3 130 129 126 
1 2 4 2 3 5 1 126 
6 3 2 3 3 2 2 133 127 
5 1 2 2 4 2 1 128 
9 3 2 2 1 4 1 131 
9 3 2 2 5 2 1 131 
6 3 3 4 2 4 4 138 133 132 430 
6 4 2 3 2 2 2 134 132 
4 1 5 2 2 3 1 135 
5 1 5 2 2 5 1 135 
3 3 3 1 1 3 2 138 137 
5 5 5 1 2 1 1 136 
2 5 2 2 4 1 1 137 
4 4 2 1 4 3 1 139 
5 2 2 2 4 4 1 139 
1 3 2 2 2 3 2 141 140 
1 1 4 4 4 2 2 145 142 
10 1 4 1 2 2 2 145 144 
6 1 2 4 2 3 1 143 
10 2 3 1 3 2 1 144 
10 3 1 2 2 2 1 146 
5 2 4 1 1 4 1 146 
6 1 2 3 3 1 2 151 147 
9 2 2 1 4 1 1 148 
10 4 1 4 6 3 1 149 
4 3 2 4 2 2 1 150 
8 1 1 3 2 2 1 152 
2 4 5 2 5 1 1 152 
2 4 3 3 2 3 1 153 
6 2 3 1 3 3 2 156 154 
3 3 2 2 4 3 1 155 
10 2 1 3 3 1 1 157 
9 5 2 2 4 1 1 157 
0 0 0 0 0 0 1 702 
0 0 0 0 0 0 2 159 168 
9 0 1 0 0 0 3 167 160 448 
9 0 3 0 0 0 1 161 
9 0 2 0 0 0 2 166 162 
6 0 2 0 0 0 1 163 
10 0 3 0 0 0 1 164 
6 0 5 0 0 0 1 165 
2 0 1 0 0 0 1 169 
5 0 4 0 0 0 1 169 
10 0 2 0 0 0 1 169 
10 0 2 0 0 0 1 169 
0 0 0 0 0 0 5 222 264 306 348 360 
0 0 0 0 0 0 1 171 
1 1 1 1 1 1 2 178 172 
3 1 1 5 2 3 1 173 
5 2 4 1 2 1 1 174 
7 5 1 2 1 3 1 175 
1 3 5 3 2 1 2 180 176 
3 2 1 4 4 2 1 177 
1 1 4 4 1 6 1 179 
8 1 1 2 1 1 1 179 
2 4 5 1 3 1 1 181 
9 3 1 2 2 2 1 181 
4 1 1 2 4 5 1 182 
5 4 4 3 5 3 2 185 183 
7 4 4 4 2 1 1 184 
10 2 2 1 2 2 2 193 186 
8 3 3 1 3 1 1 186 
9 1 2 4 1 3 1 187 
5 2 3 2 2 3 1 188 
9 3 2 1 5 1 3 196 194 189 
1 1 2 3 2 2 2 201 190 
8 4 1 1 6 1 1 191 
10 2 2 2 3 3 1 192 
2 4 3 1 4 4 2 200 195 
3 1 3 2 2 4 2 206 197 
4 1 2 3 3 1 1 195 
10 3 4 3 2 3 1 197 
1 2 1 2 2 2 2 201 199 
6 2 2 4 3 2 1 198 
3 2 2 2 2 3 1 199 
7 3 4 2 2 3 2 204 202 
3 1 1 1 2 3 3 213 206 203 
5 2 2 3 2 2 1 202 
1 2 4 2 2 2 2 213 203 
5 1 4 1 1 1 1 205 
8 4 2 2 2 2 2 213 208 
3 2 2 2 2 6 1 207 
10 4 3 3 4 1 2 207 395 
9 2 2 6 3 2 1 208 
6 2 4 2 3 1 1 209 
9 3 4 1 3 2 2 218 210 
6 6 2 4 2 7 1 211 
6 4 1 4 2 4 1 212 
10 4 3 3 2 1 1 214 
3 2 2 3 1 3 1 214 
9 1 3 3 2 2 1 215 
2 4 2 4 3 6 1 216 
4 3 4 2 1 1 2 219 217 
6 4 2 4 2 1 1 220 
8 2 1 2 4 3 1 219 
5 1 4 3 3 3 1 221 
7 3 2 2 5 4 1 221 
0 0 0 0 0 0 1 702 
0 0 0 0 0 0 3 223 231 236 
2 1 0 1 1 1 1 224 
9 2 0 3 5 3 1 225 
10 4 0 1 3 1 1 226 
10 3 0 2 3 2 1 227 
3 5 0 2 1 4 2 237 228 
5 3 0 4 3 2 1 229 
7 3 0 2 1 2 1 230 
2 1 0 2 1 1 1 232 
7 4 0 1 3 1 1 232 
9 1 0 1 2 1 1 233 
1 3 0 3 3 2 1 234 
1 2 0 4 3 4 1 235 
8 2 0 3 1 1 2 249 238 
7 4 0 1 3 2 2 249 238 
4 3 0 3 1 2 3 262 249 239 
3 1 0 3 2 2 2 262 239 
7 1 0 2 3 1 2 252 240 
1 2 0 4 2 3 2 261 241 
3 1 0 2 4 4 1 242 
7 2 0 3 3 3 1 243 
4 4 0 5 3 3 2 244 670 
2 3 0 2 1 1 2 258 245 
7 1 0 2 3 2 3 260 259 246 
4 1 0 2 3 2 1 247 
8 4 0 2 1 2 1 248 
4 2 0 3 3 2 1 250 
9 2 0 2 3 2 2 258 253 
6 7 0 1 2 4 1 251 
5 1 0 2 3 2 1 253 
7 1 0 1 3 1 1 253 
10 3 0 2 1 8 1 254 
1 3 0 5 4 5 1 255 
7 1 0 4 3 3 1 256 
1 2 0 3 1 5 1 257 
4 4 0 4 3 2 1 263 
9 1 0 3 3 4 1 263 
6 1 0 3 3 3 1 263 
1 3 0 4 2 3 1 263 
10 3 0 2 4 2 1 263 
4 5 0 1 3 2 1 263 
0 0 0 0 0 0 1 702 
0 0 0 0 0 0 3 265 268 270 
8 0 1 1 1 1 1 266 
8 0 2 5 3 4 1 267 
10 0 1 5 7 2 1 269 
4 0 4 1 1 1 1 269 
10 0 3 2 1 4 1 271 
6 0 1 1 1 1 1 271 
6 0 4 3 2 3 1 272 
1 0 2 4 5 3 2 276 273 
3 0 2 2 3 5 1 274 
7 0 2 1 3 4 1 275 
1 0 1 1 4 2 1 277 
3 0 5 1 2 2 1 277 
9 0 2 6 3 2 1 278 
3 0 3 2 2 4 1 279 
1 0 4 1 2 1 1 280 
1 0 2 5 4 2 2 286 281 
8 0 1 1 2 3 2 289 282 
7 0 3 4 5 3 1 283 
4 0 3 1 2 1 2 304 284 
9 0 2 1 2 3 1 285 
3 0 4 2 2 4 1 287 
1 0 2 4 3 1 3 303 292 290 
5 0 2 2 3 3 1 288 
2 0 2 5 2 4 2 303 290 
3 0 2 1 2 1 1 290 
5 0 3 2 2 3 3 302 301 291 
1 0 2 2 4 2 1 293 
4 0 3 1 2 5 1 293 
1 0 2 2 1 2 1 294 
5 0 3 5 3 2 1 295 
2 0 3 2 2 3 1 296 
6 0 4 4 1 2 2 297 358 
7 0 1 1 4 3 1 298 
3 0 1 5 1 2 1 299 
7 0 2 2 2 2 1 300 
5 0 4 2 2 5 1 305 
8 0 3 2 2 1 1 305 
4 0 2 2 3 1 1 305 
6 0 4 2 2 2 1 305 
6 0 3 4 2 1 1 305 
0 0 0 0 0 0 1 702 
0 0 0 0 0 0 3 307 315 322 
3 1 0 1 1 1 1 308 
6 2 0 3 3 2 1 309 
9 3 0 3 2 2 1 310 
4 2 0 1 1 2 1 311 
9 4 0 5 2 5 2 320 312 
2 2 0 3 2 2 1 313 
4 3 0 4 1 3 1 314 
5 2 0 3 2 2 1 316 
10 2 0 2 1 2 1 316 
10 3 0 1 4 2 1 317 
3 1 0 2 2 3 2 318 586 
7 2 0 2 4 3 1 319 
8 1 0 2 1 4 2 334 321 
10 2 0 1 3 3 3 346 334 323 
3 1 0 3 6 2 2 346 323 
1 1 0 4 4 6 2 334 323 
10 1 0 3 2 2 2 336 324 
4 2 0 1 4 4 2 345 325 
1 2 0 3 7 6 1 326 
9 1 0 2 3 2 1 327 
8 2 0 2 3 2 1 328 
3 3 0 4 3 2 2 342 329 
10 4 0 2 2 1 3 344 343 330 
3 3 0 1 1 3 1 331 
8 3 0 3 3 2 1 332 
1 4 0 3 5 1 1 333 
7 3 0 3 1 3 1 335 
5 2 0 1 1 1 2 342 338 
2 3 0 1 6 2 1 337 
6 3 0 3 3 4 1 337 
4 2 0 2 1 1 1 338 
10 5 0 3 2 2 1 339 
3 3 0 1 1 2 1 340 
5 3 0 6 2 5 1 341 
10 2 0 3 3 2 1 347 
5 4 0 4 2 1 1 347 
7 5 0 1 2 3 1 347 
4 3 0 4 1 1 1 347 
5 3 0 3 1 2 1 347 
3 2 0 1 2 2 1 347 
0 0 0 0 0 0 1 702 
0 0 0 0 0 0 3 349 353 358 
5 0 0 0 0 1 2 357 350 
4 0 0 0 0 3 2 351 614 
9 0 0 0 0 2 1 352 
4 0 0 0 0 4 1 354 
3 0 0 0 0 3 1 354 
7 0 0 0 0 2 1 355 
1 0 0 0 0 1 1 356 
5 0 0 0 0 5 1 359 
8 0 0 0 0 1 1 359 
10 0 0 0 0 3 1 359 
0 0 0 0 0 0 5 402 414 446 478 510 
0 0 0 0 0 0 3 361 364 366 
8 1 1 1 0 1 1 362 
10 2 2 2 0 2 1 363 
6 3 4 5 0 2 1 365 
4 2 1 3 0 3 1 365 
3 3 3 3 0 3 1 367 
7 2 2 3 0 3 1 367 
5 3 3 4 0 1 1 368 
7 4 1 3 0 3 2 369 613 
7 2 1 2 0 1 2 372 370 
2 1 3 8 0 4 1 371 
1 1 1 1 0 3 1 373 
5 2 2 4 0 2 1 373 
4 5 1 1 0 3 1 374 
9 2 2 5 0 5 1 375 
1 2 2 3 0 1 1 376 
10 3 3 3 0 2 2 382 377 
3 1 3 1 0 2 2 385 378 
4 1 2 3 0 2 1 379 
1 1 3 3 0 2 2 400 380 
8 2 4 1 0 2 1 381 
9 2 3 1 0 3 1 383 
7 3 1 2 0 2 3 396 388 386 
10 2 2 3 0 4 1 384 
8 3 2 1 0 3 2 396 386 
10 1 3 1 0 4 2 396 386 
3 3 3 1 0 4 2 399 387 
4 2 3 1 0 4 2 398 389 
6 1 3 2 0 4 1 389 
8 3 5 2 0 3 1 390 
4 3 2 1 0 2 1 391 
3 7 3 4 0 1 1 392 
2 4 3 3 0 1 1 393 
6 4 2 3 0 5 1 394 
5 2 3 2 0 3 1 395 
1 4 3 2 0 1 1 397 
10 3 5 4 0 1 1 397 
2 3 1 2 0 2 1 401 
3 3 5 2 0 1 1 401 
3 3 1 3 0 2 1 401 
3 1 3 1 0 3 1 401 
0 0 0 0 0 0 1 702 
0 0 0 0 0 0 2 403 406 
2 1 0 0 0 0 1 404 
4 1 0 0 0 0 1 405 
2 5 0 0 0 0 2 408 407 
10 2 0 0 0 0 2 409 408 
3 3 0 0 0 0 2 412 409 
10 3 0 0 0 0 2 412 411 
2 2 0 0 0 0 2 410 516 
1 4 0 0 0 0 1 411 
10 1 0 0 0 0 1 413 
5 3 0 0 0 0 1 413 
0 0 0 0 0 0 5 542 564 576 598 620 
0 0 0 0 0 0 2 415 419 
10 1 0 1 1 0 1 416 
9 1 0 1 3 0 1 417 
2 1 0 5 3 0 1 418 
2 2 0 4 2 0 1 420 
1 4 0 2 2 0 1 420 
4 3 0 1 2 0 2 425 421 
3 2 0 1 5 0 1 422 
7 2 0 1 2 0 1 423 
10 1 0 1 3 0 3 428 427 424 
2 1 0 2 3 0 2 430 426 
5 4 0 2 4 0 1 426 
5 4 0 2 1 0 3 433 432 429 
2 1 0 5 2 0 2 432 429 
3 2 0 1 1 0 2 432 429 
7 4 0 4 1 0 1 431 
1 3 0 1 2 0 1 431 
4 2 0 4 1 0 1 434 
1 3 0 1 1 0 1 434 
2 1 0 4 1 0 1 434 
2 2 0 2 3 0 1 435 
6 2 0 1 2 0 2 436 570 
9 3 0 3 2 0 2 440 437 
7 5 0 1 4 0 1 438 
10 2 0 7 4 0 1 439 
6 1 0 2 3 0 1 441 
6 2 0 2 5 0 1 441 
2 4 0 4 4 0 1 442 
2 3 0 2 3 0 1 443 
4 1 0 4 2 0 1 444 
8 8 0 4 3 0 1 445 
0 0 0 0 0 0 1 702 
0 0 0 0 0 0 2 447 476 
9 1 1 0 0 1 1 448 
3 1 3 0 0 2 1 449 
1 1 1 0 0 1 1 450 
10 1 1 0 0 3 1 451 
6 4 1 0 0 4 2 475 452 
4 1 1 0 0 1 1 453 
4 3 2 0 0 2 2 474 454 
3 7 3 0 0 2 4 473 472 467 455 
1 4 1 0 0 2 2 463 456 
3 2 7 0 0 3 1 457 
8 2 1 0 0 4 2 458 500 
4 5 4 0 0 4 1 459 
10 2 3 0 0 2 2 471 460 
5 3 1 0 0 5 1 461 
9 1 1 0 0 2 1 462 
9 2 4 0 0 6 1 464 
10 3 3 0 0 2 1 464 
10 3 4 0 0 1 1 465 
10 2 2 0 0 2 1 466 
1 3 1 0 0 2 1 468 
8 2 3 0 0 2 1 468 
10 6 2 0 0 2 1 469 
3 3 1 0 0 2 1 470 
10 1 5 0 0 3 1 477 
5 3 3 0 0 3 1 477 
6 3 4 0 0 2 1 477 
3 1 4 0 0 2 1 477 
8 2 2 0 0 2 1 477 
8 1 4 0 0 5 1 477 
2 2 2 0 0 1 1 477 
0 0 0 0 0 0 1 702 
0 0 0 0 0 0 6 479 504 505 506 507 508 
3 0 1 1 0 1 1 480 
2 0 7 1 0 2 1 481 
8 0 2 3 0 3 3 503 502 482 
5 0 1 4 0 4 1 483 
3 0 2 1 0 3 1 484 
2 0 3 2 0 3 1 485 
1 0 5 1 0 3 1 486 
3 0 2 4 0 1 1 487 
3 0 2 2 0 3 1 488 
9 0 2 1 0 1 2 501 489 
1 0 4 3 0 3 1 490 
6 0 2 3 0 2 1 491 
1 0 1 1 0 2 1 492 
8 0 3 5 0 4 1 493 
3 0 2 1 0 1 1 494 
1 0 2 3 0 3 2 495 684 
6 0 2 2 0 1 1 496 
10 0 2 2 0 3 1 497 
6 0 3 1 0 3 1 498 
9 0 2 3 0 3 1 499 
10 0 4 1 0 2 1 500 
6 0 3 2 0 6 1 509 
10 0 1 2 0 2 1 509 
10 0 1 3 0 3 1 509 
6 0 1 3 0 4 1 509 
1 0 2 6 0 2 1 509 
1 0 1 4 0 1 1 509 
5 0 6 4 0 1 1 509 
10 0 3 1 0 3 1 509 
4 0 3 5 0 2 1 509 
0 0 0 0 0 0 1 702 
0 0 0 0 0 0 6 511 536 537 538 539 540 
4 0 1 1 1 0 1 512 
7 0 2 5 2 0 1 513 
6 0 4 1 5 0 2 535 514 
9 0 3 3 3 0 2 534 515 
6 0 3 3 1 0 1 516 
3 0 2 3 4 0 1 517 
1 0 2 4 1 0 1 518 
7 0 4 3 2 0 1 519 
1 0 2 1 1 0 1 520 
7 0 4 2 2 0 2 533 521 
2 0 2 3 1 0 1 522 
5 0 3 3 2 0 1 523 
5 0 1 3 4 0 1 524 
2 0 5 1 2 0 1 525 
7 0 3 2 2 0 1 526 
7 0 3 4 5 0 1 527 
8 0 2 3 2 0 1 528 
10 0 5 3 3 0 1 529 
4 0 1 3 1 0 2 530 558 
6 0 1 1 2 0 1 531 
7 0 2 1 2 0 1 532 
3 0 3 3 2 0 1 541 
9 0 3 2 2 0 1 541 
2 0 1 2 2 0 1 541 
2 0 3 4 2 0 1 541 
10 0 3 4 1 0 1 541 
6 0 1 1 2 0 1 541 
9 0 1 1 9 0 1 541 
2 0 2 3 5 0 1 541 
5 0 3 2 2 0 1 541 
0 0 0 0 0 0 1 702 
0 0 0 0 0 0 3 543 557 559 
8 0 0 0 1 1 2 562 544 
7 0 0 0 2 3 1 545 
8 0 0 0 2 2 1 546 
8 0 0 0 4 3 1 547 
5 0 0 0 2 3 2 561 548 
10 0 0 0 3 1 2 549 663 
1 0 0 0 3 2 2 555 550 
4 0 0 0 3 2 1 551 
5 0 0 0 5 4 1 552 
2 0 0 0 1 2 1 553 
8 0 0 0 2 3 1 554 
6 0 0 0 4 2 1 556 
6 0 0 0 4 2 1 556 
2 0 0 0 2 4 1 558 
1 0 0 0 1 2 1 558 
3 0 0 0 2 3 1 560 
10 0 0 0 3 1 1 560 
5 0 0 0 1 1 1 563 
7 0 0 0 4 6 1 563 
6 0 0 0 1 3 1 563 
0 0 0 0 0 0 1 702 
0 0 0 0 0 0 1 565 
6 0 0 0 1 0 2 567 566 
1 0 0 0 1 0 2 574 568 
2 0 0 0 1 0 1 568 
2 0 0 0 2 0 2 570 569 
7 0 0 0 2 0 1 571 
3 0 0 0 2 0 2 571 698 
4 0 0 0 3 0 1 572 
8 0 0 0 4 0 1 573 
3 0 0 0 2 0 1 575 
3 0 0 0 7 0 1 575 
0 0 0 0 0 0 5 642 654 666 678 690 
0 0 0 0 0 0 2 577 580 
3 0 1 1 0 0 1 578 
7 0 2 2 0 0 2 585 579 
8 0 4 5 0 0 2 584 581 
3 0 2 1 0 0 2 584 581 
10 0 2 5 0 0 2 590 582 
6 0 4 2 0 0 1 583 
7 0 2 3 0 0 1 586 
4 0 5 2 0 0 1 586 
10 0 4 1 0 0 1 586 
5 0 2 3 0 0 1 587 
8 0 3 4 0 0 1 588 
9 0 1 4 0 0 1 589 
10 0 4 1 0 0 1 591 
6 0 1 2 0 0 1 591 
7 0 2 1 0 0 3 596 592 629 
5 0 2 1 0 0 1 593 
10 0 2 4 0 0 1 594 
2 0 3 3 0 0 1 595 
7 0 1 3 0 0 1 597 
2 0 3 2 0 0 1 597 
0 0 0 0 0 0 1 702 
0 0 0 0 0 0 4 599 614 617 618 
3 1 0 0 1 0 2 610 600 
2 3 0 0 3 0 1 601 
6 3 0 0 2 0 1 602 
6 5 0 0 2 0 1 603 
6 2 0 0 4 0 1 604 
6 1 0 0 4 0 1 605 
10 3 0 0 1 0 1 606 
7 2 0 0 2 0 1 607 
6 2 0 0 3 0 2 616 608 
5 2 0 0 3 0 1 609 
10 1 0 0 2 0 1 611 
4 1 0 0 6 0 1 611 
5 5 0 0 3 0 1 612 
9 1 0 0 2 0 1 613 
5 2 0 0 1 0 1 615 
1 4 0 0 2 0 1 615 
2 2 0 0 2 0 1 619 
6 3 0 0 1 0 2 619 688 
9 2 0 0 3 0 1 619 
7 5 0 0 3 0 1 619 
0 0 0 0 0 0 1 702 
0 0 0 0 0 0 3 621 631 636 
10 0 1 1 0 0 2 640 622 
6 0 2 4 0 0 1 623 
7 0 1 3 0 0 1 624 
1 0 5 1 0 0 1 625 
4 0 3 2 0 0 1 626 
4 0 2 5 0 0 1 627 
4 0 1 3 0 0 2 639 628 
8 0 3 4 0 0 1 629 
4 0 4 2 0 0 1 630 
2 0 5 3 0 0 2 638 632 
6 0 1 2 0 0 2 639 634 
8 0 1 2 0 0 1 633 
3 0 1 2 0 0 1 634 
2 0 3 1 0 0 2 635 660 
5 0 3 2 0 0 1 637 
6 0 2 3 0 0 1 638 
6 0 2 2 0 0 1 641 
1 0 3 2 0 0 1 641 
9 0 4 3 0 0 1 641 
2 0 3 3 0 0 1 641 
0 0 0 0 0 0 1 702 
0 0 0 0 0 0 2 643 687 
3 0 0 1 0 0 1 644 
10 0 0 2 0 0 1 645 
9 0 0 1 0 0 2 648 646 
5 0 0 2 0 0 1 647 
2 0 0 2 0 0 2 650 649 
3 0 0 3 0 0 1 649 
9 0 0 4 0 0 2 652 651 
7 0 0 4 0 0 1 651 
8 0 0 1 0 0 1 653 
1 0 0 5 0 0 1 653 
0 0 0 0 0 0 1 702 
0 0 0 0 0 0 2 655 656 
1 0 0 0 0 1 2 663 657 
10 0 0 0 0 1 3 664 663 659 
10 0 0 0 0 3 1 658 
6 0 0 0 0 4 2 659 676 
8 0 0 0 0 2 1 660 
8 0 0 0 0 1 1 661 
3 0 0 0 0 3 1 662 
7 0 0 0 0 2 1 665 
9 0 0 0 0 4 1 665 
2 0 0 0 0 4 1 665 
0 0 0 0 0 0 1 702 
0 0 0 0 0 0 1 667 
3 0 1 0 0 0 2 672 668 
6 0 3 0 0 0 1 669 
5 0 4 0 0 0 3 676 674 670 
1 0 2 0 0 0 1 671 
8 0 1 0 0 0 2 673 686 
5 0 2 0 0 0 1 673 
4 0 1 0 0 0 1 675 
1 0 2 0 0 0 1 675 
8 0 7 0 0 0 1 677 
10 0 2 0 0 0 1 677 
0 0 0 0 0 0 1 702 
0 0 0 0 0 0 2 679 680 
5 0 0 0 1 0 2 682 681 
9 0 0 0 2 0 2 684 682 
5 0 0 0 3 0 2 684 683 
6 0 0 0 3 0 1 683 
5 0 0 0 1 0 1 685 
10 0 0 0 3 0 1 685 
10 0 0 0 1 0 1 686 
10 0 0 0 4 0 1 687 
9 0 0 0 4 0 2 688 691 
2 0 0 0 3 0 1 689 
0 0 0 0 0 0 1 702 
0 0 0 0 0 0 2 691 692 
5 0 0 1 0 0 2 694 693 
1 0 0 3 0 0 2 695 693 
4 0 0 3 0 0 2 700 696 
10 0 0 2 0 0 1 695 
10 0 0 5 0 0 1 696 
4 0 0 3 0 0 1 697 
8 0 0 2 0 0 1 698 
8 0 0 1 0 0 1 699 
6 0 0 3 0 0 1 701 
6 0 0 2 0 0 1 701 
0 0 0 0 0 0 1 702 
0 0 0 0 0 0 0 
